Minimize

5 x_0 + 4 x_1 + 3 x_2 + 5 x_3 + 5 x_4 + 8 x_5 + 8 x_6 + 7 x_7 + 6 x_8 + 10 x_9


Subject To

a0: 1 x_0 + 0 x_1 + 0 x_2 + 0 x_3 + 0 x_4 + 0 x_5 + 0 x_6 + 1 x_7 + 0 x_8 + 0 x_9 >= 1
a1: 0 x_0 + 0 x_1 + 1 x_2 + 0 x_3 + 0 x_4 + 0 x_5 + 1 x_6 + 0 x_7 + 0 x_8 + 1 x_9 >= 1
a2: 0 x_0 + 1 x_1 + 0 x_2 + 0 x_3 + 1 x_4 + 0 x_5 + 0 x_6 + 0 x_7 + 1 x_8 + 0 x_9 >= 1
a3: 0 x_0 + 0 x_1 + 0 x_2 + 1 x_3 + 0 x_4 + 0 x_5 + 0 x_6 + 0 x_7 + 0 x_8 + 0 x_9 >= 1
a4: 0 x_0 + 0 x_1 + 0 x_2 + 0 x_3 + 0 x_4 + 1 x_5 + 0 x_6 + 0 x_7 + 0 x_8 + 0 x_9 >= 1
b0: 2 + 2 + 2 + 2 + 2 + 2 + 2 + 2 + 2 + 2 >= 3
c0: 8 x_5 <= 10




 


End
